36 30 6
0 1 0
1 2 0
2 3 0
3 4 0
4 5 0
6 7 1
7 8 1
8 9 1
9 10 1
10 11 1
12 13 2
13 14 2
14 15 2
15 16 2
16 17 2
18 19 3
19 20 3
20 21 3
21 22 3
22 23 3
24 25 4
25 26 4
26 27 4
27 28 4
28 29 4
30 31 5
31 32 5
32 33 5
33 34 5
34 35 5
1 2 1
1 0 3
1 1 6
1 3 7
1 5 3
1 4 6
1 1 8
1 2 5
1 4 10
1 5 10
1 0 10
1 3 4
1 2 5
1 3 4
1 5 8
1 0 9
1 1 1
1 4 7
1 1 5
1 0 5
1 2 5
1 3 3
1 4 8
1 5 9
1 2 9
1 1 3
1 4 5
1 5 4
1 0 3
1 3 1
1 1 3
1 3 3
1 5 9
1 0 10
1 4 4
1 2 1